9
Properties=species:S:1:pos:R:3:forces:R:3 Generated=T from=T SMILES:=T CCO=T charge=0 spin=1 pbc="F F F"
C       -0.77131591       1.01628424       1.23470347      -0.11345271       0.21903570      -0.07108665
C        0.27140437      -0.01785529       0.86414438      -0.24036185       0.00409647       0.26509231
O        1.00278547      -0.40469938       2.01841395       0.04763761      -0.23308624       0.30389842
H       -1.33279004       1.33719023       0.35286663      -0.02760253      -0.00054860       0.10789536
H       -0.29968746       1.89212039       1.69229318      -0.00674248      -0.11861001      -0.14314756
H       -1.47325293       0.61150836       1.97118414      -0.01809907      -0.01791147      -0.13747248
H        0.97624439       0.39320195       0.13559882       0.04147217      -0.13701423       0.21404533
H       -0.19489419      -0.90716673       0.42942709      -0.05380549       0.08244944      -0.20599385
H        0.36956088      -0.77726058       2.65546031       0.37095439       0.20158894      -0.33323085
9
Properties=species:S:1:pos:R:3:forces:R:3 Generated=T from=T SMILES:=T CCO=T charge=0 spin=1 pbc="F F F"
C       -0.77130430       1.01651127       1.23460982      -0.12769890       0.17238575      -0.05577909
C        0.27139366      -0.01772233       0.86405459      -0.24066277      -0.01541600       0.25472647
O        1.00296205      -0.40453885       2.01828082       0.09982419      -0.20364226       0.24712008
H       -1.33323930       1.33612970       0.35324139      -0.03645345       0.00669618       0.09660436
H       -0.30006308       1.89144966       1.69171746       0.00668242      -0.08913963      -0.13091470
H       -1.47252521       0.61076548       1.97219246      -0.00827164      -0.00817294      -0.15226750
H        0.97759033       0.39327836       0.13652688       0.03012818      -0.13934313       0.21161988
H       -0.19581542      -0.90735719       0.42840132      -0.03545922       0.10678165      -0.19130015
H        0.37202805      -0.77732422       2.65474027       0.31191117       0.16985032      -0.27980939
9
Properties=species:S:1:pos:R:3:forces:R:3 Generated=T from=T SMILES:=T CCO=T charge=0 spin=1 pbc="F F F"
C       -0.77131578       1.01696003       1.23459035      -0.13192782       0.12943214      -0.07292606
C        0.27042372      -0.01760770       0.86402099      -0.20983000      -0.04638090       0.23679298
O        1.00307731      -0.40468485       2.01840727       0.23689578      -0.11042659       0.05215785
H       -1.33499222       1.33571112       0.35445612      -0.03668290       0.01157056       0.08645829
H       -0.29962084       1.88986757       1.69073615       0.02717420      -0.03772491      -0.10906711
H       -1.47052513       0.61078499       1.97262660      -0.02895137      -0.01458923      -0.13365786
H        0.98000310       0.39246108       0.13951598       0.01628986      -0.12896860       0.19581097
H       -0.19784947      -0.90603737       0.42344313      -0.00828952       0.13025683      -0.14899915
H        0.37749317      -0.77595862       2.65278900       0.13532166       0.06683066      -0.10657002
9
Properties=species:S:1:pos:R:3:forces:R:3 Generated=T from=T SMILES:=T CCO=T charge=0 spin=1 pbc="F F F"
C       -0.77144315       1.01768408       1.23441088      -0.13325648       0.08718015      -0.11986233
C        0.26911684      -0.01796072       0.86423210      -0.17088573      -0.03482046       0.25465730
O        1.00355038      -0.40520611       2.01874296       0.36690974      -0.01237989      -0.16858383
H       -1.33862146       1.33454446       0.35568521      -0.02120631       0.01308218       0.08345851
H       -0.29856400       1.88885712       1.68770887       0.04698825       0.01962902      -0.08166389
H       -1.46848900       0.61235405       1.97251976      -0.06162030      -0.03105424      -0.09075172
H        0.98256061       0.39160342       0.14575350       0.02810421      -0.09910417       0.13977264
H       -0.19938508      -0.90258082       0.41640251       0.00180742       0.10808538      -0.11047163
H        0.38306669      -0.77388204       2.65082188      -0.05684079      -0.05061796       0.09344502
9
Properties=species:S:1:pos:R:3:forces:R:3 Generated=T from=T SMILES:=T CCO=T charge=0 spin=1 pbc="F F F"
C       -0.77143486       1.01854923       1.23411103      -0.14586912       0.02467440      -0.15956897
C        0.26748603      -0.01849114       0.86440145      -0.12464772      -0.01772682       0.31498918
O        1.00432640      -0.40562195       2.01925366       0.44103199       0.05453520      -0.34928697
H       -1.34196495       1.33205646       0.35653380      -0.01092654       0.02296576       0.07421533
H       -0.29749790       1.88809616       1.68412666       0.06709099       0.07972189      -0.05218509
H       -1.46694777       0.61352865       1.97208924      -0.08318878      -0.03906149      -0.05448351
H        0.98553407       0.38951912       0.15423187       0.06312893      -0.04576349       0.04794229
H       -0.20029744      -0.89824559       0.40830215      -0.00102519       0.06381378      -0.07387672
H        0.38814089      -0.77278885       2.64978743      -0.20559452      -0.14315926       0.25225443
9
Properties=species:S:1:pos:R:3:forces:R:3 Generated=T from=T SMILES:=T CCO=T charge=0 spin=1 pbc="F F F"
C       -0.77164205       1.01954411       1.23383489      -0.11232559      -0.08418743      -0.11810278
C        0.26594299      -0.01882571       0.86408974      -0.10508316      -0.02680734       0.43044853
O        1.00544876      -0.40596467       2.01996072       0.40545487       0.06132118      -0.42969996
H       -1.34430673       1.32878822       0.36048629      -0.05569394       0.06599813      -0.02754280
H       -0.29553349       1.88726576       1.67975020       0.08145527       0.13804093      -0.01424918
H       -1.46662458       0.61406385       1.97114962      -0.08442008      -0.03705986      -0.02206624
H        0.98859112       0.38730286       0.16436473       0.12901397       0.02926601      -0.07836071
H       -0.19981418      -0.89422625       0.39944323      -0.00771370       0.02383905      -0.03735542
H        0.39203283      -0.77419462       2.65074023      -0.25068766      -0.17041066       0.29692847
